p cnf 10 50
-6 10 8 0
1 2 -6 0
2 1 -4 0
9 6 -3 0
-4 -3 9 0
7 1 9 0
5 -8 -1 0
8 -10 -4 0
-6 4 5 0
-3 6 -10 0
3 8 -1 0
-4 -9 1 0
5 -9 -8 0
-4 1 -5 0
6 9 10 0
-3 -8 -5 0
-6 -9 -4 0
7 -6 -10 0
2 4 9 0
3 8 5 0
-6 1 -3 0
-2 4 6 0
-8 -10 5 0
2 -10 -6 0
6 -7 1 0
4 3 9 0
9 -7 6 0
7 4 5 0
-5 -8 -1 0
-4 3 1 0
-2 6 7 0
1 8 5 0
7 3 4 0
9 -1 6 0
-1 -6 -9 0
6 8 2 0
-5 -10 -9 0
2 3 -7 0
-10 5 7 0
4 -6 9 0
-3 5 6 0
-5 2 7 0
5 8 -4 0
4 -10 8 0
-1 -2 -10 0
2 -4 8 0
-5 -7 9 0
-10 4 1 0
-2 3 4 0
-2 -5 -3 0
